# Random Circle Problem
param d := 0.05; 
param n := 10; 
param radius := 2.00; 
param v0 := 
1 5.92
2 5.91
3 5.82
4 5.39
5 5.33
6 5.04
7 5.20
8 5.34
9 5.84
10 5.73
;
param cap := 
1 3.16095
2 3.65042
3 4.59023
4 5.15305
5 5.45321
6 0.43338
7 0.98606
8 1.10291
9 1.43234
10 2.77418
;
param x0 := 
1 2.00
2 1.62
3 0.62
4 -0.62
5 -1.62
6 -2.00
7 -1.62
8 -0.62
9 0.62
10 1.62
;
param y0 := 
1 -0.00
2 1.18
3 1.90
4 1.90
5 1.18
6 0.00
7 -1.18
8 -1.90
9 -1.90
10 -1.18
;
